% Generated FlatZinc statistics:
%%%mzn-stat: paths=0
%%%mzn-stat: flatBoolVars=238
%%%mzn-stat: flatIntVars=419
%%%mzn-stat: flatBoolConstraints=119
%%%mzn-stat: flatIntConstraints=485
%%%mzn-stat: evaluatedReifiedConstraints=59
%%%mzn-stat: evaluatedHalfReifiedConstraints=179
%%%mzn-stat: method="minimize"
%%%mzn-stat: flatTime=1.37409
%%%mzn-stat-end

S = [28, 27, 59, 38, 6, 33, 31, 50, 49, 58, 25, 10, 16, 3, 37, 57, 5, 14, 29, 20, 21, 22, 52, 39, 34, 41, 42, 24, 7, 17, 36, 32, 60, 55, 23, 43, 30, 18, 12, 40, 8, 4, 15, 44, 45, 54, 47, 48, 56, 19, 51, 26, 9, 2, 46, 35, 53, 11, 13, 1]
P = [60, 54, 14, 42, 17, 5, 29, 41, 53, 12, 58, 39, 59, 18, 43, 13, 30, 38, 50, 20, 21, 22, 35, 28, 11, 52, 2, 1, 19, 37, 7, 32, 6, 25, 56, 31, 15, 4, 24, 40, 26, 27, 36, 44, 45, 55, 47, 48, 9, 8, 51, 23, 57, 46, 34, 49, 16, 10, 3, 33]
cost = 36341
%%%mzn-stat: initTime=0.049775
%%%mzn-stat: solveTime=300.002
%%%mzn-stat: solutions=42
%%%mzn-stat: variables=719
%%%mzn-stat: propagators=517
%%%mzn-stat: propagations=1223168553
%%%mzn-stat: nodes=4426166
%%%mzn-stat: failures=2212939
%%%mzn-stat: restarts=0
%%%mzn-stat: peakDepth=47
%%%mzn-stat-end
itinerary = [1,28,24,39,12,10,58,11,25,34,55,46,54,2,27,42,4,38,18,14,3,59,13,16,57,53,9,49,56,35,23,52,26,41,8,50,19,29,7,31,36,43,15,37,30,17,5,6,33,60]
opt = false
